c colouring generated by benchmark framework
p edge 23 71
v 1 3
v 2 1
v 3 3
v 4 2
v 5 4
v 6 4
v 7 2
v 8 2
v 9 2
v 10 4
v 11 3
v 12 4
v 13 0
v 14 0
v 15 0
v 16 4
v 17 4
v 18 4
v 19 0
v 20 0
v 21 1
v 22 0
v 23 2
